<?xml version = "1.0" encoding="UTF-8" standalone="yes"?>
<CPLEXSolution version="1.2">
 <header
   problemName="ilog.cplex"
   objectiveValue="0"
   solutionTypeValue="1"
   solutionTypeString="basic"
   solutionStatusValue="1"
   solutionStatusString="optimal"
   solutionMethodString="dual"
   primalFeasible="1"
   dualFeasible="1"
   simplexIterations="0"
   writeLevel="1"/>
 <quality
   epRHS="1e-06"
   epOpt="1e-06"
   maxPrimalInfeas="0"
   maxDualInfeas="0"
   maxPrimalResidual="0"
   maxDualResidual="0"
   maxX="670"
   maxPi="0"
   maxSlack="334"
   maxRedCost="1"
   kappa="104"/>
 <linearConstraints>
  <constraint index="0" status="BS" slack="-334" dual="-0"/>
  <constraint index="1" status="LL" slack="0" dual="-0"/>
  <constraint index="2" status="LL" slack="0" dual="0"/>
  <constraint index="3" status="BS" slack="0" dual="0"/>
  <constraint index="4" status="BS" slack="0" dual="0"/>
  <constraint index="5" status="BS" slack="0" dual="0"/>
  <constraint index="6" status="LL" slack="0" dual="-0"/>
  <constraint index="7" status="BS" slack="0" dual="0"/>
  <constraint index="8" status="LL" slack="0" dual="-0"/>
  <constraint index="9" status="LL" slack="0" dual="0"/>
  <constraint index="10" status="LL" slack="0" dual="0"/>
  <constraint index="11" status="LL" slack="0" dual="0"/>
  <constraint index="12" status="BS" slack="0" dual="0"/>
  <constraint index="13" status="BS" slack="0" dual="0"/>
  <constraint index="14" status="BS" slack="0" dual="0"/>
  <constraint index="15" status="LL" slack="0" dual="-0"/>
  <constraint index="16" status="LL" slack="0" dual="-0"/>
  <constraint index="17" status="LL" slack="0" dual="-0"/>
  <constraint index="18" status="BS" slack="0" dual="0"/>
  <constraint index="19" status="BS" slack="0" dual="0"/>
  <constraint index="20" status="BS" slack="0" dual="0"/>
  <constraint index="21" status="LL" slack="0" dual="-0"/>
  <constraint index="22" status="LL" slack="0" dual="-0"/>
  <constraint index="23" status="LL" slack="0" dual="-0"/>
  <constraint index="24" status="BS" slack="0" dual="0"/>
  <constraint index="25" status="BS" slack="0" dual="0"/>
  <constraint index="26" status="BS" slack="0" dual="0"/>
  <constraint index="27" status="LL" slack="0" dual="-0"/>
  <constraint index="28" status="LL" slack="0" dual="-0"/>
  <constraint index="29" status="LL" slack="0" dual="-0"/>
  <constraint index="30" status="BS" slack="0" dual="0"/>
  <constraint index="31" status="BS" slack="0" dual="0"/>
  <constraint index="32" status="BS" slack="0" dual="0"/>
  <constraint index="33" status="LL" slack="0" dual="-0"/>
  <constraint index="34" status="LL" slack="0" dual="-0"/>
  <constraint index="35" status="LL" slack="0" dual="-0"/>
  <constraint index="36" status="BS" slack="0" dual="0"/>
  <constraint index="37" status="BS" slack="0" dual="0"/>
  <constraint index="38" status="BS" slack="0" dual="0"/>
  <constraint index="39" status="LL" slack="0" dual="-0"/>
  <constraint index="40" status="LL" slack="0" dual="-0"/>
  <constraint index="41" status="LL" slack="0" dual="-0"/>
  <constraint index="42" status="LL" slack="0" dual="0"/>
  <constraint index="43" status="LL" slack="0" dual="-0"/>
  <constraint index="44" status="LL" slack="0" dual="0"/>
  <constraint index="45" status="LL" slack="0" dual="-0"/>
  <constraint index="46" status="LL" slack="0" dual="-0"/>
  <constraint index="47" status="LL" slack="0" dual="0"/>
  <constraint index="48" status="BS" slack="0" dual="0"/>
  <constraint index="49" status="BS" slack="0" dual="0"/>
  <constraint index="50" status="BS" slack="0" dual="0"/>
  <constraint index="51" status="LL" slack="0" dual="-0"/>
  <constraint index="52" status="LL" slack="0" dual="-0"/>
  <constraint index="53" status="LL" slack="0" dual="-0"/>
  <constraint index="54" status="BS" slack="0" dual="0"/>
  <constraint index="55" status="BS" slack="0" dual="0"/>
  <constraint index="56" status="BS" slack="0" dual="0"/>
  <constraint index="57" status="LL" slack="0" dual="-0"/>
  <constraint index="58" status="LL" slack="0" dual="-0"/>
  <constraint index="59" status="LL" slack="0" dual="-0"/>
  <constraint index="60" status="BS" slack="0" dual="0"/>
  <constraint index="61" status="BS" slack="0" dual="0"/>
  <constraint index="62" status="BS" slack="0" dual="0"/>
  <constraint index="63" status="BS" slack="0" dual="0"/>
  <constraint index="64" status="BS" slack="0" dual="0"/>
  <constraint index="65" status="LL" slack="0" dual="0"/>
  <constraint index="66" status="BS" slack="0" dual="0"/>
  <constraint index="67" status="BS" slack="0" dual="0"/>
  <constraint index="68" status="BS" slack="0" dual="0"/>
  <constraint index="69" status="BS" slack="0" dual="0"/>
  <constraint index="70" status="BS" slack="0" dual="0"/>
  <constraint index="71" status="BS" slack="0" dual="0"/>
  <constraint index="72" status="BS" slack="0" dual="0"/>
  <constraint index="73" status="LL" slack="0" dual="-0"/>
  <constraint index="74" status="BS" slack="0" dual="0"/>
  <constraint index="75" status="BS" slack="0" dual="0"/>
  <constraint index="76" status="BS" slack="0" dual="0"/>
  <constraint index="77" status="BS" slack="0" dual="0"/>
  <constraint index="78" status="BS" slack="0" dual="0"/>
  <constraint index="79" status="BS" slack="0" dual="0"/>
  <constraint index="80" status="BS" slack="0" dual="0"/>
  <constraint index="81" status="LL" slack="0" dual="-0"/>
  <constraint index="82" status="BS" slack="0" dual="0"/>
  <constraint index="83" status="BS" slack="0" dual="0"/>
  <constraint index="84" status="BS" slack="0" dual="0"/>
  <constraint index="85" status="BS" slack="0" dual="0"/>
  <constraint index="86" status="BS" slack="0" dual="0"/>
  <constraint index="87" status="BS" slack="0" dual="0"/>
  <constraint index="88" status="BS" slack="0" dual="0"/>
  <constraint index="89" status="LL" slack="0" dual="0"/>
  <constraint index="90" status="BS" slack="0" dual="0"/>
  <constraint index="91" status="BS" slack="0" dual="0"/>
  <constraint index="92" status="LL" slack="0" dual="0"/>
  <constraint index="93" status="LL" slack="0" dual="0"/>
  <constraint index="94" status="LL" slack="0" dual="0"/>
  <constraint index="95" status="LL" slack="0" dual="0"/>
  <constraint index="96" status="LL" slack="0" dual="0"/>
  <constraint index="97" status="LL" slack="0" dual="0"/>
  <constraint index="98" status="LL" slack="0" dual="0"/>
  <constraint index="99" status="LL" slack="0" dual="0"/>
  <constraint index="100" status="LL" slack="0" dual="0"/>
  <constraint index="101" status="LL" slack="0" dual="0"/>
  <constraint index="102" status="LL" slack="0" dual="0"/>
  <constraint index="103" status="LL" slack="0" dual="0"/>
  <constraint index="104" status="LL" slack="0" dual="0"/>
  <constraint index="105" status="LL" slack="0" dual="0"/>
  <constraint index="106" status="LL" slack="0" dual="0"/>
  <constraint index="107" status="LL" slack="0" dual="0"/>
  <constraint index="108" status="LL" slack="0" dual="0"/>
  <constraint index="109" status="LL" slack="0" dual="0"/>
  <constraint index="110" status="LL" slack="0" dual="0"/>
  <constraint index="111" status="LL" slack="0" dual="0"/>
  <constraint index="112" status="LL" slack="0" dual="0"/>
  <constraint index="113" status="LL" slack="0" dual="0"/>
  <constraint index="114" status="LL" slack="0" dual="0"/>
  <constraint index="115" status="LL" slack="0" dual="0"/>
  <constraint index="116" status="LL" slack="0" dual="0"/>
  <constraint index="117" status="LL" slack="0" dual="0"/>
  <constraint index="118" status="LL" slack="0" dual="0"/>
  <constraint index="119" status="LL" slack="0" dual="0"/>
  <constraint index="120" status="LL" slack="0" dual="0"/>
  <constraint index="121" status="LL" slack="0" dual="0"/>
  <constraint index="122" status="LL" slack="0" dual="0"/>
  <constraint index="123" status="LL" slack="0" dual="0"/>
  <constraint index="124" status="LL" slack="0" dual="0"/>
  <constraint index="125" status="LL" slack="0" dual="0"/>
  <constraint index="126" status="LL" slack="0" dual="0"/>
  <constraint index="127" status="LL" slack="0" dual="0"/>
  <constraint index="128" status="LL" slack="0" dual="0"/>
  <constraint index="129" status="LL" slack="0" dual="0"/>
  <constraint index="130" status="LL" slack="0" dual="0"/>
  <constraint index="131" status="LL" slack="0" dual="0"/>
  <constraint index="132" status="LL" slack="0" dual="0"/>
  <constraint index="133" status="LL" slack="0" dual="0"/>
  <constraint index="134" status="LL" slack="0" dual="0"/>
  <constraint index="135" status="LL" slack="0" dual="0"/>
  <constraint index="136" status="LL" slack="0" dual="0"/>
  <constraint index="137" status="LL" slack="0" dual="0"/>
  <constraint index="138" status="LL" slack="0" dual="0"/>
  <constraint index="139" status="LL" slack="0" dual="0"/>
  <constraint index="140" status="LL" slack="0" dual="0"/>
  <constraint index="141" status="LL" slack="0" dual="0"/>
  <constraint index="142" status="LL" slack="0" dual="0"/>
  <constraint index="143" status="LL" slack="0" dual="0"/>
  <constraint index="144" status="LL" slack="0" dual="0"/>
  <constraint index="145" status="LL" slack="0" dual="0"/>
  <constraint index="146" status="LL" slack="0" dual="0"/>
  <constraint index="147" status="LL" slack="0" dual="0"/>
  <constraint index="148" status="LL" slack="0" dual="-0"/>
  <constraint index="149" status="LL" slack="0" dual="0"/>
  <constraint index="150" status="LL" slack="0" dual="0"/>
  <constraint index="151" status="LL" slack="0" dual="0"/>
  <constraint index="152" status="LL" slack="0" dual="0"/>
  <constraint index="153" status="LL" slack="0" dual="0"/>
  <constraint index="154" status="LL" slack="0" dual="0"/>
  <constraint index="155" status="LL" slack="0" dual="0"/>
  <constraint index="156" status="LL" slack="0" dual="0"/>
  <constraint index="157" status="LL" slack="0" dual="0"/>
  <constraint index="158" status="LL" slack="0" dual="0"/>
  <constraint index="159" status="LL" slack="0" dual="0"/>
  <constraint index="160" status="LL" slack="0" dual="0"/>
  <constraint index="161" status="LL" slack="0" dual="0"/>
  <constraint index="162" status="LL" slack="0" dual="0"/>
  <constraint index="163" status="LL" slack="0" dual="0"/>
  <constraint index="164" status="LL" slack="0" dual="0"/>
  <constraint index="165" status="LL" slack="0" dual="0"/>
  <constraint index="166" status="LL" slack="0" dual="0"/>
  <constraint index="167" status="LL" slack="0" dual="0"/>
  <constraint index="168" status="LL" slack="0" dual="0"/>
  <constraint index="169" status="LL" slack="0" dual="0"/>
  <constraint index="170" status="LL" slack="0" dual="0"/>
  <constraint index="171" status="LL" slack="0" dual="0"/>
  <constraint index="172" status="BS" slack="0" dual="0"/>
  <constraint index="173" status="BS" slack="0" dual="0"/>
  <constraint index="174" status="LL" slack="0" dual="-0"/>
 </linearConstraints>
 <variables>
  <variable name="y(0)" index="0" status="BS" value="670" reducedCost="0"/>
  <variable name="l(0)" index="1" status="LL" value="0" reducedCost="1"/>
  <variable name="u(0)" index="2" status="BS" value="670" reducedCost="0"/>
  <variable name="z(0)" index="3" status="LL" value="0" reducedCost="0"/>
  <variable name="z(1)" index="4" status="LL" value="0" reducedCost="0"/>
  <variable name="x(0,1,0,2,5,3)(0)" index="5" status="LL" value="0" reducedCost="0"/>
  <variable name="x(0,1,0,2,5,3)(1)" index="6" status="LL" value="0" reducedCost="0"/>
  <variable name="x(0,1,0,2,5,3)(2)" index="7" status="LL" value="0" reducedCost="0"/>
  <variable name="x(0,1,0,2,5,3)(3)" index="8" status="BS" value="335" reducedCost="0"/>
  <variable name="xNG(0,1,0,2,5,3)" index="9" status="LL" value="0" reducedCost="0"/>
  <variable name="xPB(0,1,0,2,5,3)(0)" index="10" status="LL" value="0" reducedCost="0"/>
  <variable name="xPB(0,1,0,2,5,3)(1)" index="11" status="LL" value="0" reducedCost="0"/>
  <variable name="xPB(0,1,0,2,5,3)(2)" index="12" status="LL" value="0" reducedCost="0"/>
  <variable name="xPB(0,1,0,2,5,3)(3)" index="13" status="LL" value="0" reducedCost="0"/>
  <variable name="xPB(0,1,0,2,5,3)(4)" index="14" status="LL" value="0" reducedCost="0"/>
  <variable name="xGS(0,1,0,2,5,3)(0)" index="15" status="LL" value="0" reducedCost="0"/>
  <variable name="xGS(0,1,0,2,5,3)(1)" index="16" status="LL" value="0" reducedCost="0"/>
  <variable name="xGS(0,1,0,2,5,3)(2)" index="17" status="LL" value="0" reducedCost="0"/>
  <variable name="xGS(0,1,0,2,5,3)(3)" index="18" status="LL" value="0" reducedCost="0"/>
  <variable name="xGS(0,1,0,2,5,3)(4)" index="19" status="LL" value="0" reducedCost="0"/>
  <variable name="xEAe(0,1,0,2,5,3)(1)" index="20" status="BS" value="335" reducedCost="0"/>
  <variable name="xEAe(0,1,0,2,5,3)(2)" index="21" status="BS" value="0" reducedCost="0"/>
  <variable name="xEAe(0,1,0,2,5,3)(3)" index="22" status="BS" value="0" reducedCost="0"/>
  <variable name="xEAe(0,1,0,2,5,3)(4)" index="23" status="BS" value="0" reducedCost="0"/>
  <variable name="xEAe(0,1,0,2,5,3)(5)" index="24" status="LL" value="0" reducedCost="0"/>
  <variable name="xEAe&apos;(0,1,0,2,5,3)(1)(5)" index="25" status="BS" value="0" reducedCost="0"/>
  <variable name="xEAe&apos;(0,1,0,2,5,3)(2)(5)" index="26" status="BS" value="335" reducedCost="0"/>
  <variable name="xEAe&apos;(0,1,0,2,5,3)(3)(5)" index="27" status="LL" value="0" reducedCost="0"/>
  <variable name="xEAe&apos;(0,1,0,2,5,3)(4)(5)" index="28" status="BS" value="0" reducedCost="0"/>
  <variable name="xEAe&apos;(0,1,0,2,5,3)(5)(5)" index="29" status="LL" value="0" reducedCost="0"/>
  <variable name="xEAeR(0,1,0,2,5,3)(1)" index="30" status="LL" value="0" reducedCost="0"/>
  <variable name="xEAeR(0,1,0,2,5,3)(2)" index="31" status="LL" value="0" reducedCost="0"/>
  <variable name="xEAeR(0,1,0,2,5,3)(3)" index="32" status="LL" value="0" reducedCost="0"/>
  <variable name="xEAeR(0,1,0,2,5,3)(4)" index="33" status="LL" value="0" reducedCost="0"/>
  <variable name="xEAeR(0,1,0,2,5,3)(5)" index="34" status="LL" value="0" reducedCost="0"/>
  <variable name="xEAr(0,1,0,2,0)(2)(1)" index="35" status="LL" value="0" reducedCost="0"/>
  <variable name="xEAr(0,1,0,2,0)(3)(1)" index="36" status="LL" value="0" reducedCost="0"/>
  <variable name="xEAr(0,1,0,2,0)(3)(2)" index="37" status="LL" value="0" reducedCost="0"/>
  <variable name="xEAr(0,1,0,2,0)(4)(1)" index="38" status="LL" value="0" reducedCost="0"/>
  <variable name="xEAr(0,1,0,2,0)(4)(2)" index="39" status="LL" value="0" reducedCost="0"/>
  <variable name="xEAr(0,1,0,2,0)(4)(3)" index="40" status="LL" value="0" reducedCost="0"/>
  <variable name="xEAr(0,1,0,2,0)(5)(1)" index="41" status="LL" value="0" reducedCost="0"/>
  <variable name="xEAr(0,1,0,2,0)(5)(2)" index="42" status="BS" value="0" reducedCost="0"/>
  <variable name="xEAr(0,1,0,2,0)(5)(3)" index="43" status="BS" value="0" reducedCost="0"/>
  <variable name="xEAr(0,1,0,2,0)(5)(4)" index="44" status="BS" value="0" reducedCost="0"/>
  <variable name="xEAr(0,1,0,2,1)(2)(1)" index="45" status="LL" value="0" reducedCost="0"/>
  <variable name="xEAr(0,1,0,2,1)(3)(1)" index="46" status="LL" value="0" reducedCost="0"/>
  <variable name="xEAr(0,1,0,2,1)(3)(2)" index="47" status="LL" value="0" reducedCost="0"/>
  <variable name="xEAr(0,1,0,2,1)(4)(1)" index="48" status="LL" value="0" reducedCost="0"/>
  <variable name="xEAr(0,1,0,2,1)(4)(2)" index="49" status="LL" value="0" reducedCost="0"/>
  <variable name="xEAr(0,1,0,2,1)(4)(3)" index="50" status="LL" value="0" reducedCost="0"/>
  <variable name="xEAr(0,1,0,2,1)(5)(1)" index="51" status="LL" value="0" reducedCost="0"/>
  <variable name="xEAr(0,1,0,2,1)(5)(2)" index="52" status="BS" value="0" reducedCost="0"/>
  <variable name="xEAr(0,1,0,2,1)(5)(3)" index="53" status="BS" value="0" reducedCost="0"/>
  <variable name="xEAr(0,1,0,2,1)(5)(4)" index="54" status="BS" value="0" reducedCost="0"/>
  <variable name="xEAr(0,1,0,2,2)(2)(1)" index="55" status="LL" value="0" reducedCost="0"/>
  <variable name="xEAr(0,1,0,2,2)(3)(1)" index="56" status="LL" value="0" reducedCost="0"/>
  <variable name="xEAr(0,1,0,2,2)(3)(2)" index="57" status="LL" value="0" reducedCost="0"/>
  <variable name="xEAr(0,1,0,2,2)(4)(1)" index="58" status="LL" value="0" reducedCost="0"/>
  <variable name="xEAr(0,1,0,2,2)(4)(2)" index="59" status="LL" value="0" reducedCost="0"/>
  <variable name="xEAr(0,1,0,2,2)(4)(3)" index="60" status="LL" value="0" reducedCost="0"/>
  <variable name="xEAr(0,1,0,2,2)(5)(1)" index="61" status="LL" value="0" reducedCost="0"/>
  <variable name="xEAr(0,1,0,2,2)(5)(2)" index="62" status="BS" value="0" reducedCost="0"/>
  <variable name="xEAr(0,1,0,2,2)(5)(3)" index="63" status="BS" value="0" reducedCost="0"/>
  <variable name="xEAr(0,1,0,2,2)(5)(4)" index="64" status="BS" value="0" reducedCost="0"/>
  <variable name="xEAr(0,1,0,2,3)(2)(1)" index="65" status="LL" value="0" reducedCost="0"/>
  <variable name="xEAr(0,1,0,2,3)(3)(1)" index="66" status="LL" value="0" reducedCost="0"/>
  <variable name="xEAr(0,1,0,2,3)(3)(2)" index="67" status="LL" value="0" reducedCost="0"/>
  <variable name="xEAr(0,1,0,2,3)(4)(1)" index="68" status="LL" value="0" reducedCost="0"/>
  <variable name="xEAr(0,1,0,2,3)(4)(2)" index="69" status="LL" value="0" reducedCost="0"/>
  <variable name="xEAr(0,1,0,2,3)(4)(3)" index="70" status="LL" value="0" reducedCost="0"/>
  <variable name="xEAr(0,1,0,2,3)(5)(1)" index="71" status="LL" value="0" reducedCost="0"/>
  <variable name="xEAr(0,1,0,2,3)(5)(2)" index="72" status="BS" value="0" reducedCost="0"/>
  <variable name="xEAr(0,1,0,2,3)(5)(3)" index="73" status="BS" value="0" reducedCost="0"/>
  <variable name="xEAr(0,1,0,2,3)(5)(4)" index="74" status="BS" value="0" reducedCost="0"/>
  <variable name="xEAr(0,1,0,2,4)(2)(1)" index="75" status="LL" value="0" reducedCost="0"/>
  <variable name="xEAr(0,1,0,2,4)(3)(1)" index="76" status="LL" value="0" reducedCost="0"/>
  <variable name="xEAr(0,1,0,2,4)(3)(2)" index="77" status="LL" value="0" reducedCost="0"/>
  <variable name="xEAr(0,1,0,2,4)(4)(1)" index="78" status="LL" value="0" reducedCost="0"/>
  <variable name="xEAr(0,1,0,2,4)(4)(2)" index="79" status="LL" value="0" reducedCost="0"/>
  <variable name="xEAr(0,1,0,2,4)(4)(3)" index="80" status="LL" value="0" reducedCost="0"/>
  <variable name="xEAr(0,1,0,2,4)(5)(1)" index="81" status="LL" value="0" reducedCost="0"/>
  <variable name="xEAr(0,1,0,2,4)(5)(2)" index="82" status="BS" value="0" reducedCost="0"/>
  <variable name="xEAr(0,1,0,2,4)(5)(3)" index="83" status="BS" value="0" reducedCost="0"/>
  <variable name="xEAr(0,1,0,2,4)(5)(4)" index="84" status="BS" value="0" reducedCost="0"/>
  <variable name="xEAr(0,1,0,2,5)(2)(1)" index="85" status="BS" value="0" reducedCost="0"/>
  <variable name="xEAr(0,1,0,2,5)(3)(1)" index="86" status="BS" value="335" reducedCost="0"/>
  <variable name="xEAr(0,1,0,2,5)(3)(2)" index="87" status="BS" value="0" reducedCost="0"/>
  <variable name="xEAr(0,1,0,2,5)(4)(1)" index="88" status="BS" value="0" reducedCost="0"/>
  <variable name="xEAr(0,1,0,2,5)(4)(2)" index="89" status="BS" value="335" reducedCost="0"/>
  <variable name="xEAr(0,1,0,2,5)(4)(3)" index="90" status="BS" value="0" reducedCost="0"/>
  <variable name="xEAr(0,1,0,2,5)(5)(1)" index="91" status="BS" value="0" reducedCost="0"/>
  <variable name="xEAr(0,1,0,2,5)(5)(2)" index="92" status="BS" value="0" reducedCost="0"/>
  <variable name="xEAr(0,1,0,2,5)(5)(3)" index="93" status="BS" value="335" reducedCost="0"/>
  <variable name="xEAr(0,1,0,2,5)(5)(4)" index="94" status="LL" value="0" reducedCost="0"/>
  <variable name="xEAr(0,1,0,2,6)(2)(1)" index="95" status="LL" value="0" reducedCost="0"/>
  <variable name="xEAr(0,1,0,2,6)(3)(1)" index="96" status="LL" value="0" reducedCost="0"/>
  <variable name="xEAr(0,1,0,2,6)(3)(2)" index="97" status="LL" value="0" reducedCost="0"/>
  <variable name="xEAr(0,1,0,2,6)(4)(1)" index="98" status="LL" value="0" reducedCost="0"/>
  <variable name="xEAr(0,1,0,2,6)(4)(2)" index="99" status="LL" value="0" reducedCost="0"/>
  <variable name="xEAr(0,1,0,2,6)(4)(3)" index="100" status="LL" value="0" reducedCost="0"/>
  <variable name="xEAr(0,1,0,2,6)(5)(1)" index="101" status="LL" value="0" reducedCost="0"/>
  <variable name="xEAr(0,1,0,2,6)(5)(2)" index="102" status="BS" value="0" reducedCost="0"/>
  <variable name="xEAr(0,1,0,2,6)(5)(3)" index="103" status="BS" value="0" reducedCost="0"/>
  <variable name="xEAr(0,1,0,2,6)(5)(4)" index="104" status="BS" value="0" reducedCost="0"/>
  <variable name="xEAr(0,1,0,2,7)(2)(1)" index="105" status="LL" value="0" reducedCost="0"/>
  <variable name="xEAr(0,1,0,2,7)(3)(1)" index="106" status="LL" value="0" reducedCost="0"/>
  <variable name="xEAr(0,1,0,2,7)(3)(2)" index="107" status="LL" value="0" reducedCost="0"/>
  <variable name="xEAr(0,1,0,2,7)(4)(1)" index="108" status="LL" value="0" reducedCost="0"/>
  <variable name="xEAr(0,1,0,2,7)(4)(2)" index="109" status="LL" value="0" reducedCost="0"/>
  <variable name="xEAr(0,1,0,2,7)(4)(3)" index="110" status="LL" value="0" reducedCost="0"/>
  <variable name="xEAr(0,1,0,2,7)(5)(1)" index="111" status="LL" value="0" reducedCost="0"/>
  <variable name="xEAr(0,1,0,2,7)(5)(2)" index="112" status="BS" value="0" reducedCost="0"/>
  <variable name="xEAr(0,1,0,2,7)(5)(3)" index="113" status="BS" value="0" reducedCost="0"/>
  <variable name="xEAr(0,1,0,2,7)(5)(4)" index="114" status="BS" value="0" reducedCost="0"/>
  <variable name="xEAr&apos;(0,1,0,2,0)(2)(1)(0)" index="115" status="LL" value="0" reducedCost="0"/>
  <variable name="xEAr&apos;(0,1,0,2,0)(3)(1)(0)" index="116" status="LL" value="0" reducedCost="0"/>
  <variable name="xEAr&apos;(0,1,0,2,0)(3)(2)(0)" index="117" status="LL" value="0" reducedCost="0"/>
  <variable name="xEAr&apos;(0,1,0,2,0)(4)(1)(0)" index="118" status="LL" value="0" reducedCost="0"/>
  <variable name="xEAr&apos;(0,1,0,2,0)(4)(2)(0)" index="119" status="LL" value="0" reducedCost="0"/>
  <variable name="xEAr&apos;(0,1,0,2,0)(4)(3)(0)" index="120" status="LL" value="0" reducedCost="0"/>
  <variable name="xEAr&apos;(0,1,0,2,0)(5)(1)(0)" index="121" status="LL" value="0" reducedCost="0"/>
  <variable name="xEAr&apos;(0,1,0,2,0)(5)(2)(0)" index="122" status="LL" value="0" reducedCost="0"/>
  <variable name="xEAr&apos;(0,1,0,2,0)(5)(3)(0)" index="123" status="LL" value="0" reducedCost="0"/>
  <variable name="xEAr&apos;(0,1,0,2,0)(5)(4)(0)" index="124" status="LL" value="0" reducedCost="0"/>
  <variable name="xEAr&apos;(0,1,0,2,1)(2)(1)(1)" index="125" status="LL" value="0" reducedCost="0"/>
  <variable name="xEAr&apos;(0,1,0,2,1)(3)(1)(1)" index="126" status="LL" value="0" reducedCost="0"/>
  <variable name="xEAr&apos;(0,1,0,2,1)(3)(2)(1)" index="127" status="LL" value="0" reducedCost="0"/>
  <variable name="xEAr&apos;(0,1,0,2,1)(4)(1)(1)" index="128" status="LL" value="0" reducedCost="0"/>
  <variable name="xEAr&apos;(0,1,0,2,1)(4)(2)(1)" index="129" status="LL" value="0" reducedCost="0"/>
  <variable name="xEAr&apos;(0,1,0,2,1)(4)(3)(1)" index="130" status="LL" value="0" reducedCost="0"/>
  <variable name="xEAr&apos;(0,1,0,2,1)(5)(1)(1)" index="131" status="LL" value="0" reducedCost="0"/>
  <variable name="xEAr&apos;(0,1,0,2,1)(5)(2)(1)" index="132" status="LL" value="0" reducedCost="0"/>
  <variable name="xEAr&apos;(0,1,0,2,1)(5)(3)(1)" index="133" status="LL" value="0" reducedCost="0"/>
  <variable name="xEAr&apos;(0,1,0,2,1)(5)(4)(1)" index="134" status="LL" value="0" reducedCost="0"/>
  <variable name="xEAr&apos;(0,1,0,2,2)(2)(1)(2)" index="135" status="LL" value="0" reducedCost="0"/>
  <variable name="xEAr&apos;(0,1,0,2,2)(3)(1)(2)" index="136" status="LL" value="0" reducedCost="0"/>
  <variable name="xEAr&apos;(0,1,0,2,2)(3)(2)(2)" index="137" status="LL" value="0" reducedCost="0"/>
  <variable name="xEAr&apos;(0,1,0,2,2)(4)(1)(2)" index="138" status="LL" value="0" reducedCost="0"/>
  <variable name="xEAr&apos;(0,1,0,2,2)(4)(2)(2)" index="139" status="LL" value="0" reducedCost="0"/>
  <variable name="xEAr&apos;(0,1,0,2,2)(4)(3)(2)" index="140" status="LL" value="0" reducedCost="0"/>
  <variable name="xEAr&apos;(0,1,0,2,2)(5)(1)(2)" index="141" status="LL" value="0" reducedCost="0"/>
  <variable name="xEAr&apos;(0,1,0,2,2)(5)(2)(2)" index="142" status="LL" value="0" reducedCost="0"/>
  <variable name="xEAr&apos;(0,1,0,2,2)(5)(3)(2)" index="143" status="LL" value="0" reducedCost="0"/>
  <variable name="xEAr&apos;(0,1,0,2,2)(5)(4)(2)" index="144" status="LL" value="0" reducedCost="0"/>
  <variable name="xEAr&apos;(0,1,0,2,3)(2)(1)(3)" index="145" status="LL" value="0" reducedCost="0"/>
  <variable name="xEAr&apos;(0,1,0,2,3)(3)(1)(3)" index="146" status="LL" value="0" reducedCost="0"/>
  <variable name="xEAr&apos;(0,1,0,2,3)(3)(2)(3)" index="147" status="LL" value="0" reducedCost="0"/>
  <variable name="xEAr&apos;(0,1,0,2,3)(4)(1)(3)" index="148" status="LL" value="0" reducedCost="0"/>
  <variable name="xEAr&apos;(0,1,0,2,3)(4)(2)(3)" index="149" status="LL" value="0" reducedCost="0"/>
  <variable name="xEAr&apos;(0,1,0,2,3)(4)(3)(3)" index="150" status="LL" value="0" reducedCost="0"/>
  <variable name="xEAr&apos;(0,1,0,2,3)(5)(1)(3)" index="151" status="LL" value="0" reducedCost="0"/>
  <variable name="xEAr&apos;(0,1,0,2,3)(5)(2)(3)" index="152" status="LL" value="0" reducedCost="0"/>
  <variable name="xEAr&apos;(0,1,0,2,3)(5)(3)(3)" index="153" status="LL" value="0" reducedCost="0"/>
  <variable name="xEAr&apos;(0,1,0,2,3)(5)(4)(3)" index="154" status="LL" value="0" reducedCost="0"/>
  <variable name="xEAr&apos;(0,1,0,2,4)(2)(1)(4)" index="155" status="LL" value="0" reducedCost="0"/>
  <variable name="xEAr&apos;(0,1,0,2,4)(3)(1)(4)" index="156" status="LL" value="0" reducedCost="0"/>
  <variable name="xEAr&apos;(0,1,0,2,4)(3)(2)(4)" index="157" status="LL" value="0" reducedCost="0"/>
  <variable name="xEAr&apos;(0,1,0,2,4)(4)(1)(4)" index="158" status="LL" value="0" reducedCost="0"/>
  <variable name="xEAr&apos;(0,1,0,2,4)(4)(2)(4)" index="159" status="LL" value="0" reducedCost="0"/>
  <variable name="xEAr&apos;(0,1,0,2,4)(4)(3)(4)" index="160" status="LL" value="0" reducedCost="0"/>
  <variable name="xEAr&apos;(0,1,0,2,4)(5)(1)(4)" index="161" status="LL" value="0" reducedCost="0"/>
  <variable name="xEAr&apos;(0,1,0,2,4)(5)(2)(4)" index="162" status="LL" value="0" reducedCost="0"/>
  <variable name="xEAr&apos;(0,1,0,2,4)(5)(3)(4)" index="163" status="LL" value="0" reducedCost="0"/>
  <variable name="xEAr&apos;(0,1,0,2,4)(5)(4)(4)" index="164" status="LL" value="0" reducedCost="0"/>
  <variable name="xEAr&apos;(0,1,0,2,5)(2)(1)(5)" index="165" status="LL" value="0" reducedCost="0"/>
  <variable name="xEAr&apos;(0,1,0,2,5)(3)(1)(5)" index="166" status="LL" value="0" reducedCost="0"/>
  <variable name="xEAr&apos;(0,1,0,2,5)(3)(2)(5)" index="167" status="LL" value="0" reducedCost="0"/>
  <variable name="xEAr&apos;(0,1,0,2,5)(4)(1)(5)" index="168" status="LL" value="0" reducedCost="0"/>
  <variable name="xEAr&apos;(0,1,0,2,5)(4)(2)(5)" index="169" status="LL" value="0" reducedCost="0"/>
  <variable name="xEAr&apos;(0,1,0,2,5)(4)(3)(5)" index="170" status="LL" value="0" reducedCost="0"/>
  <variable name="xEAr&apos;(0,1,0,2,5)(5)(1)(5)" index="171" status="LL" value="0" reducedCost="0"/>
  <variable name="xEAr&apos;(0,1,0,2,5)(5)(2)(5)" index="172" status="LL" value="0" reducedCost="0"/>
  <variable name="xEAr&apos;(0,1,0,2,5)(5)(3)(5)" index="173" status="LL" value="0" reducedCost="0"/>
  <variable name="xEAr&apos;(0,1,0,2,5)(5)(4)(5)" index="174" status="LL" value="0" reducedCost="0"/>
  <variable name="xEAr&apos;(0,1,0,2,6)(2)(1)(6)" index="175" status="LL" value="0" reducedCost="0"/>
  <variable name="xEAr&apos;(0,1,0,2,6)(3)(1)(6)" index="176" status="LL" value="0" reducedCost="0"/>
  <variable name="xEAr&apos;(0,1,0,2,6)(3)(2)(6)" index="177" status="LL" value="0" reducedCost="0"/>
  <variable name="xEAr&apos;(0,1,0,2,6)(4)(1)(6)" index="178" status="LL" value="0" reducedCost="0"/>
  <variable name="xEAr&apos;(0,1,0,2,6)(4)(2)(6)" index="179" status="LL" value="0" reducedCost="0"/>
  <variable name="xEAr&apos;(0,1,0,2,6)(4)(3)(6)" index="180" status="LL" value="0" reducedCost="0"/>
  <variable name="xEAr&apos;(0,1,0,2,6)(5)(1)(6)" index="181" status="LL" value="0" reducedCost="0"/>
  <variable name="xEAr&apos;(0,1,0,2,6)(5)(2)(6)" index="182" status="LL" value="0" reducedCost="0"/>
  <variable name="xEAr&apos;(0,1,0,2,6)(5)(3)(6)" index="183" status="LL" value="0" reducedCost="0"/>
  <variable name="xEAr&apos;(0,1,0,2,6)(5)(4)(6)" index="184" status="LL" value="0" reducedCost="0"/>
  <variable name="xEAr&apos;(0,1,0,2,7)(2)(1)(7)" index="185" status="LL" value="0" reducedCost="0"/>
  <variable name="xEAr&apos;(0,1,0,2,7)(3)(1)(7)" index="186" status="LL" value="0" reducedCost="0"/>
  <variable name="xEAr&apos;(0,1,0,2,7)(3)(2)(7)" index="187" status="LL" value="0" reducedCost="0"/>
  <variable name="xEAr&apos;(0,1,0,2,7)(4)(1)(7)" index="188" status="LL" value="0" reducedCost="0"/>
  <variable name="xEAr&apos;(0,1,0,2,7)(4)(2)(7)" index="189" status="LL" value="0" reducedCost="0"/>
  <variable name="xEAr&apos;(0,1,0,2,7)(4)(3)(7)" index="190" status="LL" value="0" reducedCost="0"/>
  <variable name="xEAr&apos;(0,1,0,2,7)(5)(1)(7)" index="191" status="LL" value="0" reducedCost="0"/>
  <variable name="xEAr&apos;(0,1,0,2,7)(5)(2)(7)" index="192" status="LL" value="0" reducedCost="0"/>
  <variable name="xEAr&apos;(0,1,0,2,7)(5)(3)(7)" index="193" status="LL" value="0" reducedCost="0"/>
  <variable name="xEAr&apos;(0,1,0,2,7)(5)(4)(7)" index="194" status="LL" value="0" reducedCost="0"/>
  <variable name="xEArR(0,1,0,2,0)(2)(1)" index="195" status="BS" value="0" reducedCost="0"/>
  <variable name="xEArR(0,1,0,2,0)(3)(1)" index="196" status="BS" value="0" reducedCost="0"/>
  <variable name="xEArR(0,1,0,2,0)(3)(2)" index="197" status="BS" value="0" reducedCost="0"/>
  <variable name="xEArR(0,1,0,2,0)(4)(1)" index="198" status="BS" value="0" reducedCost="0"/>
  <variable name="xEArR(0,1,0,2,0)(4)(2)" index="199" status="BS" value="0" reducedCost="0"/>
  <variable name="xEArR(0,1,0,2,0)(4)(3)" index="200" status="BS" value="0" reducedCost="0"/>
  <variable name="xEArR(0,1,0,2,0)(5)(1)" index="201" status="BS" value="0" reducedCost="0"/>
  <variable name="xEArR(0,1,0,2,0)(5)(2)" index="202" status="BS" value="0" reducedCost="0"/>
  <variable name="xEArR(0,1,0,2,0)(5)(3)" index="203" status="BS" value="0" reducedCost="0"/>
  <variable name="xEArR(0,1,0,2,0)(5)(4)" index="204" status="BS" value="0" reducedCost="0"/>
  <variable name="xEArR(0,1,0,2,1)(2)(1)" index="205" status="BS" value="0" reducedCost="0"/>
  <variable name="xEArR(0,1,0,2,1)(3)(1)" index="206" status="BS" value="0" reducedCost="0"/>
  <variable name="xEArR(0,1,0,2,1)(3)(2)" index="207" status="BS" value="0" reducedCost="0"/>
  <variable name="xEArR(0,1,0,2,1)(4)(1)" index="208" status="BS" value="0" reducedCost="0"/>
  <variable name="xEArR(0,1,0,2,1)(4)(2)" index="209" status="BS" value="0" reducedCost="0"/>
  <variable name="xEArR(0,1,0,2,1)(4)(3)" index="210" status="BS" value="0" reducedCost="0"/>
  <variable name="xEArR(0,1,0,2,1)(5)(1)" index="211" status="BS" value="0" reducedCost="0"/>
  <variable name="xEArR(0,1,0,2,1)(5)(2)" index="212" status="BS" value="0" reducedCost="0"/>
  <variable name="xEArR(0,1,0,2,1)(5)(3)" index="213" status="BS" value="0" reducedCost="0"/>
  <variable name="xEArR(0,1,0,2,1)(5)(4)" index="214" status="BS" value="0" reducedCost="0"/>
  <variable name="xEArR(0,1,0,2,2)(2)(1)" index="215" status="BS" value="0" reducedCost="0"/>
  <variable name="xEArR(0,1,0,2,2)(3)(1)" index="216" status="BS" value="0" reducedCost="0"/>
  <variable name="xEArR(0,1,0,2,2)(3)(2)" index="217" status="BS" value="0" reducedCost="0"/>
  <variable name="xEArR(0,1,0,2,2)(4)(1)" index="218" status="BS" value="0" reducedCost="0"/>
  <variable name="xEArR(0,1,0,2,2)(4)(2)" index="219" status="BS" value="0" reducedCost="0"/>
  <variable name="xEArR(0,1,0,2,2)(4)(3)" index="220" status="BS" value="0" reducedCost="0"/>
  <variable name="xEArR(0,1,0,2,2)(5)(1)" index="221" status="BS" value="0" reducedCost="0"/>
  <variable name="xEArR(0,1,0,2,2)(5)(2)" index="222" status="BS" value="0" reducedCost="0"/>
  <variable name="xEArR(0,1,0,2,2)(5)(3)" index="223" status="BS" value="0" reducedCost="0"/>
  <variable name="xEArR(0,1,0,2,2)(5)(4)" index="224" status="BS" value="0" reducedCost="0"/>
  <variable name="xEArR(0,1,0,2,3)(2)(1)" index="225" status="BS" value="0" reducedCost="0"/>
  <variable name="xEArR(0,1,0,2,3)(3)(1)" index="226" status="BS" value="0" reducedCost="0"/>
  <variable name="xEArR(0,1,0,2,3)(3)(2)" index="227" status="BS" value="0" reducedCost="0"/>
  <variable name="xEArR(0,1,0,2,3)(4)(1)" index="228" status="BS" value="0" reducedCost="0"/>
  <variable name="xEArR(0,1,0,2,3)(4)(2)" index="229" status="BS" value="0" reducedCost="0"/>
  <variable name="xEArR(0,1,0,2,3)(4)(3)" index="230" status="BS" value="0" reducedCost="0"/>
  <variable name="xEArR(0,1,0,2,3)(5)(1)" index="231" status="BS" value="0" reducedCost="0"/>
  <variable name="xEArR(0,1,0,2,3)(5)(2)" index="232" status="BS" value="0" reducedCost="0"/>
  <variable name="xEArR(0,1,0,2,3)(5)(3)" index="233" status="BS" value="0" reducedCost="0"/>
  <variable name="xEArR(0,1,0,2,3)(5)(4)" index="234" status="BS" value="0" reducedCost="0"/>
  <variable name="xEArR(0,1,0,2,4)(2)(1)" index="235" status="BS" value="0" reducedCost="0"/>
  <variable name="xEArR(0,1,0,2,4)(3)(1)" index="236" status="BS" value="0" reducedCost="0"/>
  <variable name="xEArR(0,1,0,2,4)(3)(2)" index="237" status="BS" value="0" reducedCost="0"/>
  <variable name="xEArR(0,1,0,2,4)(4)(1)" index="238" status="BS" value="0" reducedCost="0"/>
  <variable name="xEArR(0,1,0,2,4)(4)(2)" index="239" status="BS" value="0" reducedCost="0"/>
  <variable name="xEArR(0,1,0,2,4)(4)(3)" index="240" status="BS" value="0" reducedCost="0"/>
  <variable name="xEArR(0,1,0,2,4)(5)(1)" index="241" status="BS" value="0" reducedCost="0"/>
  <variable name="xEArR(0,1,0,2,4)(5)(2)" index="242" status="BS" value="0" reducedCost="0"/>
  <variable name="xEArR(0,1,0,2,4)(5)(3)" index="243" status="BS" value="0" reducedCost="0"/>
  <variable name="xEArR(0,1,0,2,4)(5)(4)" index="244" status="BS" value="0" reducedCost="0"/>
  <variable name="xEArR(0,1,0,2,5)(2)(1)" index="245" status="BS" value="0" reducedCost="0"/>
  <variable name="xEArR(0,1,0,2,5)(3)(1)" index="246" status="BS" value="335" reducedCost="0"/>
  <variable name="xEArR(0,1,0,2,5)(3)(2)" index="247" status="BS" value="0" reducedCost="0"/>
  <variable name="xEArR(0,1,0,2,5)(4)(1)" index="248" status="BS" value="0" reducedCost="0"/>
  <variable name="xEArR(0,1,0,2,5)(4)(2)" index="249" status="BS" value="335" reducedCost="0"/>
  <variable name="xEArR(0,1,0,2,5)(4)(3)" index="250" status="BS" value="0" reducedCost="0"/>
  <variable name="xEArR(0,1,0,2,5)(5)(1)" index="251" status="LL" value="0" reducedCost="0"/>
  <variable name="xEArR(0,1,0,2,5)(5)(2)" index="252" status="BS" value="0" reducedCost="0"/>
  <variable name="xEArR(0,1,0,2,5)(5)(3)" index="253" status="BS" value="335" reducedCost="0"/>
  <variable name="xEArR(0,1,0,2,5)(5)(4)" index="254" status="BS" value="0" reducedCost="0"/>
  <variable name="xEArR(0,1,0,2,6)(2)(1)" index="255" status="BS" value="0" reducedCost="0"/>
  <variable name="xEArR(0,1,0,2,6)(3)(1)" index="256" status="BS" value="0" reducedCost="0"/>
  <variable name="xEArR(0,1,0,2,6)(3)(2)" index="257" status="BS" value="0" reducedCost="0"/>
  <variable name="xEArR(0,1,0,2,6)(4)(1)" index="258" status="BS" value="0" reducedCost="0"/>
  <variable name="xEArR(0,1,0,2,6)(4)(2)" index="259" status="BS" value="0" reducedCost="0"/>
  <variable name="xEArR(0,1,0,2,6)(4)(3)" index="260" status="BS" value="0" reducedCost="0"/>
  <variable name="xEArR(0,1,0,2,6)(5)(1)" index="261" status="BS" value="0" reducedCost="0"/>
  <variable name="xEArR(0,1,0,2,6)(5)(2)" index="262" status="BS" value="0" reducedCost="0"/>
  <variable name="xEArR(0,1,0,2,6)(5)(3)" index="263" status="BS" value="0" reducedCost="0"/>
  <variable name="xEArR(0,1,0,2,6)(5)(4)" index="264" status="BS" value="0" reducedCost="0"/>
  <variable name="xEArR(0,1,0,2,7)(2)(1)" index="265" status="BS" value="0" reducedCost="0"/>
  <variable name="xEArR(0,1,0,2,7)(3)(1)" index="266" status="BS" value="0" reducedCost="0"/>
  <variable name="xEArR(0,1,0,2,7)(3)(2)" index="267" status="BS" value="0" reducedCost="0"/>
  <variable name="xEArR(0,1,0,2,7)(4)(1)" index="268" status="BS" value="0" reducedCost="0"/>
  <variable name="xEArR(0,1,0,2,7)(4)(2)" index="269" status="BS" value="0" reducedCost="0"/>
  <variable name="xEArR(0,1,0,2,7)(4)(3)" index="270" status="BS" value="0" reducedCost="0"/>
  <variable name="xEArR(0,1,0,2,7)(5)(1)" index="271" status="BS" value="0" reducedCost="0"/>
  <variable name="xEArR(0,1,0,2,7)(5)(2)" index="272" status="BS" value="0" reducedCost="0"/>
  <variable name="xEArR(0,1,0,2,7)(5)(3)" index="273" status="BS" value="0" reducedCost="0"/>
  <variable name="xEArR(0,1,0,2,7)(5)(4)" index="274" status="BS" value="0" reducedCost="0"/>
 </variables>
</CPLEXSolution>
